column=7;
row=7;
max=4;
left=[2, 4, 0, 2, 0, 3, 0];
right=[3, 3, 2, 1, 0, 4, 4];
top=[2, 0, 1, 1, 4, 3, 3];
bottom=[0, 2, 2, 0, 3, 4, 4];
Board=[|0,1,0,0,0,0,0|0,4,0,0,2,3,0|4,3,1,0,0,0,0|0,0,3,0,1,0,0|0,0,0,0,3,2,0|0,0,0,2,0,0,0|1,0,0,3,0,0,0|]